(set-info :status unsat)
(declare-datatypes ((T 0)) ((
  (f0)
  (f1 (proj0f1 T) (proj1f1 T) (proj2f1 T))
  (f2 (proj0f2 T))
  (f3 (proj0f3 T) (proj1f3 T) (proj2f3 T))
  (f4 (proj0f4 T) (proj1f4 T) (proj2f4 T)))))
(assert (exists ((y3742 T) (y3740 T) (y3741 T) (y3739 T) (y3738 T) (y3737 T) (y3736 T) (y3735 T) (y3734 T) (y3733 T) (y3732 T) (y3731 T)) 
  (or (= y3731 (f3 (f3 (f2 y3731) (f1 PLACEHOLDER PLACEHOLDER PLACEHOLDER) PLACEHOLDER) (f4 PLACEHOLDER PLACEHOLDER PLACEHOLDER) PLACEHOLDER)) 
    (and (= y3732 (f3 y3733 (f1 PLACEHOLDER PLACEHOLDER PLACEHOLDER) PLACEHOLDER)) (= y3733 (f1 y3734 PLACEHOLDER PLACEHOLDER)) (= y3734 (f2 y3732))) 
    (and (= y3735 (f2 y3736)) (= y3736 (f3 y3737 (f2 (f2 PLACEHOLDER)) (f3 PLACEHOLDER PLACEHOLDER PLACEHOLDER))) (= y3737 (f3 y3738 (f3 PLACEHOLDER PLACEHOLDER PLACEHOLDER) PLACEHOLDER)) (= y3738 (f1 y3739 PLACEHOLDER (f1 PLACEHOLDER PLACEHOLDER PLACEHOLDER))) (= y3739 (f3 y3735 PLACEHOLDER PLACEHOLDER))) 
    (and (= y3740 (f1 y3741 (f1 (f4 PLACEHOLDER PLACEHOLDER PLACEHOLDER) PLACEHOLDER (f4 PLACEHOLDER PLACEHOLDER PLACEHOLDER)) PLACEHOLDER)) (= y3741 (f3 y3742 (f2 PLACEHOLDER) PLACEHOLDER)) (= y3742 (f2 y3740))))))
(check-sat)
